2A/RechercheOperationelle/TP1/ECommerceCP12.dat
data;

param nbF := 2;
param nbM := 3;
param nbD := 2;
param M := 9.5;

param DEMANDES: 1 2 :=
              1 2 0
              2 1 3;

param STOCK: 1 2 :=
           1 2.5 1
           2 1 2
           3 2 1;

param COUTS:
  1 2 :=
1 1 1
2 2 3
3 3 2;

param COUTSFIXES:
  1 2 3 :=
1 110 90 100
2 110 90 100;

param COUTSVAR:
  1 2 3 :=
1 10 1 5
2 2 20 10;

end;